nbProcess=3;
nbJobs =4;
nbMchs =5;
Process1=[3,3,3,3];
pidle=[1,2,3,1,2];
EnergyS=[10,30,60,10,30];
TB=[10,15,20,10,15];
x = 
[
[
[1,0,0],
[1,0,0],
[1,0,0],
[1,0,0]
],
[
[0,1,0],
[0,1,0],
[1,0,0],
[1,0,0]
],
[
[0,0,0],
[1,1,0],
[0,1,0],
[0,0,1]
],
[
[0,1,1],
[0,0,0],
[0,0,1],
[0,0,1]
],
[
[0,0,1],
[0,0,1],
[0,0,1],
[0,1,0]
]
];
ptime = 
[
[
[147,0,0],
[214,0,0],
[87,0,0],
[87,0,0]
],
[
[0,130,0],
[0,66,0],
[62,0,0],
[65,0,0]
],
[
[0,0,0],
[150,87,0],
[0,180,0],
[0,0,136]
],
[
[0,140,150],
[0,0,0],
[0,0,190],
[0,0,145]
],
[
[0,0,160],
[0,0,178],
[0,0,100],
[0,173,0]
]
];
power1=
[
[
[4.5,0,0,],
[3.8,0,0,],
[3.6,0,0,],
[4.1,0,0,],
],
[
[0,4.5,0,],
[0,4.4,0,],
[3.7,0,0,],
[4.9,0,0,],
],
[
[0,0,0,],
[4.4,4.2,0,],
[0,3.1,0,],
[0,0,4.4,],
],
[
[0,3.6,4.5,],
[0,0,0,],
[0,0,4.6,],
[0,0,4.8,],
],
[
[0,0,4.9,],
[0,0,3.4,],
[0,0,4.4,],
[0,4.2,0,],
],
];